% File represents an instance of a Composite Structure problem to be solved by a CP framework
% Created on 2025-03-26 10:42:19.856
T = 50;
n = 36;
m = 60;
edges = [(1, 2),
(7, 8),
(13, 14),
(20, 19),
(26, 25),
(32, 31),
(2, 3),
(8, 9),
(14, 15),
(20, 21),
(26, 27),
(32, 33),
(3, 4),
(9, 10),
(15, 16),
(21, 22),
(28, 27),
(33, 34),
(4, 5),
(11, 10),
(17, 16),
(23, 22),
(28, 29),
(35, 34),
(5, 6),
(11, 12),
(17, 18),
(24, 23),
(30, 29),
(36, 35),
(1, 7),
(7, 13),
(13, 19),
(19, 25),
(25, 31),
(2, 8),
(8, 14),
(20, 14),
(20, 26),
(26, 32),
(3, 9),
(9, 15),
(15, 21),
(21, 27),
(33, 27),
(4, 10),
(10, 16),
(16, 22),
(28, 22),
(28, 34),
(11, 5),
(17, 11),
(17, 23),
(23, 29),
(35, 29),
(12, 6),
(18, 12),
(18, 24),
(24, 30),
(36, 30)];
counts = [|8, 16, 8, 18,
|8, 14, 8, 14,
|8, 14, 8, 8,
|6, 12, 6, 8,
|6, 12, 6, 6,
|6, 8, 6, 6,
|8, 16, 8, 12,
|6, 14, 6, 12,
|6, 14, 6, 6,
|6, 12, 6, 6,
|6, 14, 6, 6,
|6, 10, 6, 6,
|6, 16, 6, 10,
|6, 12, 6, 8,
|6, 12, 6, 6,
|6, 10, 6, 6,
|6, 14, 6, 8,
|6, 12, 6, 8,
|6, 10, 6, 10,
|6, 12, 6, 10,
|6, 12, 6, 4,
|6, 6, 6, 4,
|6, 12, 6, 4,
|6, 12, 6, 6,
|6, 10, 6, 8,
|6, 12, 6, 8,
|6, 10, 6, 4,
|6, 12, 6, 4,
|6, 6, 6, 4,
|6, 10, 6, 4,
|6, 6, 6, 6,
|6, 10, 6, 8,
|6, 10, 6, 6,
|6, 8, 6, 2,
|6, 10, 6, 4,
|6, 16, 6, 4|];
